Set parameter TokenServer to value "hpc-licenses.hpcc.usc.edu"
Set parameter TimeLimit to value 3600
Gurobi Optimizer version 9.5.1 build v9.5.1rc2 (linux64)
Thread count: 20 physical cores, 20 logical processors, using up to 20 threads
Optimize a model with 6007 rows, 4529 columns and 24534 nonzeros
Model fingerprint: 0xf3a538e0
Variable types: 4506 continuous, 23 integer (23 binary)
Coefficient statistics:
  Matrix range     [1e+00, 1e+00]
  Objective range  [2e-03, 1e+00]
  Bounds range     [1e+00, 1e+00]
  RHS range        [1e+00, 6e+01]
Presolve removed 1520 rows and 1515 columns
Presolve time: 0.09s
Presolved: 4487 rows, 3014 columns, 21975 nonzeros
Variable types: 2994 continuous, 20 integer (20 binary)
Found heuristic solution: objective 278.8855408

Root relaxation: objective 2.851431e+02, 2472 iterations, 0.13 seconds (0.14 work units)

    Nodes    |    Current Node    |     Objective Bounds      |     Work
 Expl Unexpl |  Obj  Depth IntInf | Incumbent    BestBd   Gap | It/Node Time

     0     0  285.14309    0    4  278.88554  285.14309  2.24%     -    0s
     0     0  285.03510    0    4  278.88554  285.03510  2.21%     -    0s
     0     0  284.76571    0    5  278.88554  284.76571  2.11%     -    0s
H    0     0                     279.6656199  284.72855  1.81%     -    0s
     0     0  284.72855    0    2  279.66562  284.72855  1.81%     -    0s
H    0     0                     284.3111364  284.72855  0.15%     -    0s
     0     0  284.70364    0    5  284.31114  284.70364  0.14%     -    0s
     0     0  284.70364    0    4  284.31114  284.70364  0.14%     -    1s
     0     0  284.70364    0    2  284.31114  284.70364  0.14%     -    1s
     0     0  284.31114    0    5  284.31114  284.31114  0.00%     -    1s

Cutting planes:
  Gomory: 5
  Implied bound: 76
  MIR: 87
  Flow cover: 1
  RLT: 10
  Relax-and-lift: 50

Explored 1 nodes (4769 simplex iterations) in 1.58 seconds (0.89 work units)
Thread count was 20 (of 20 available processors)

Solution count 3: 284.311 279.666 278.886 

Optimal solution found (tolerance 1.00e-04)
Best objective 2.843111363539e+02, best bound 2.843111363539e+02, gap 0.0000%



#########node  1
V1.9
#########node  2
0.0,1.0
#########node  3
1.0,0.0


Total Solving Time 1.9988775253295898
obj value 284.3111363538749
Policy Regret train (Sum) 6.1720858620906105
Best Treatment Found train (%) 66.60000000000001
treatment classification acc train (%) 37.6
Policy Regret test (Sum) 62.03435671197572
Best Treatment Found test (%) 75.61
treatment classification acc test (%) 41.839999999999996
